893754
74, 13, 63, 68, 99, 80, 87, 38, 76, 88, 42, 97, 35, 2, 27, 64, 5, 3, 85, 89, 8, 53, 91, 55, 44, 72, 36, 50, 83, 15, 16, 82, 58, 61, 67, 23, 11, 28, 46, 34, 71, 54, 98, 65, 52, 43, 24, 90, 59, 19, 17, 26, 12, 40, 94, 79, 29, 51, 25, 78, 22, 73, 84, 92, 39, 14, 86, 45, 81, 7, 4, 66, 95, 57, 47, 9, 33, 21, 20, 30, 96, 77, 41, 6, 75, 69, 18, 10, 56, 49, 93, 62, 31, 60, 32, 37, 48, 1, 70
